p cnf 68 53
-1 2 3 4 5 6 7 8 9 10 11 12 31 32 33 35 46 58 59 -24 -43 0 
-2 1 3 4 5 6 7 8 9 10 11 12 31 32 33 35 46 58 59 -24 -43 0 
-3 1 2 4 5 6 7 8 9 10 11 12 31 32 33 35 46 58 59 -24 -43 0 
-4 1 2 3 5 6 7 8 9 10 11 12 31 32 33 35 46 58 59 -24 -43 0 
-5 1 2 3 4 6 7 8 9 10 11 12 31 32 33 35 46 58 59 -24 -43 0 
-6 1 2 3 4 5 7 8 9 10 11 12 31 32 33 35 46 58 59 -24 -43 0 
-7 1 2 3 4 5 6 8 9 10 11 12 31 32 33 35 46 58 59 -24 -43 0 
-8 1 2 3 4 5 6 7 9 10 11 12 31 32 33 35 46 58 59 -24 -43 0 
-9 1 2 3 4 5 6 7 8 10 11 12 31 32 33 35 46 58 59 -24 -43 0 
-10 1 2 3 4 5 6 7 8 9 11 12 31 32 33 35 46 58 59 -24 -43 0 
-11 1 2 3 4 5 6 7 8 9 10 12 31 32 33 35 46 58 59 -24 -43 0 
-12 1 2 3 4 5 6 7 8 9 10 11 31 32 33 35 46 58 59 -24 -43 0 
-13 59 -24 -43 0 
-14 16 17 20 59 -24 -43 0 
-15 28 59 -24 -43 0 
-16 14 17 20 59 -24 -43 0 
-17 14 16 20 -18 44 59 -24 -43 0 
-19 59 -24 -43 0 
-20 14 16 17 59 -24 -43 0 
-21 36 37 41 57 59 -24 -43 0 
-22 23 60 0 
-23 22 -24 43 61 0 
-25 -26 61 0 
-27 45 62 0 
-28 15 63 0 
-29 61 0 
-30 -18 44 64 0 
-31 1 2 3 4 5 6 7 8 9 10 11 12 32 33 35 46 58 59 -24 -43 0 
-32 1 2 3 4 5 6 7 8 9 10 11 12 31 33 35 46 58 59 -24 -43 0 
-33 1 2 3 4 5 6 7 8 9 10 11 12 31 32 35 46 58 59 -24 -43 0 
-1 2 3 4 5 6 7 8 9 10 11 12 31 32 33 35 46 58 -34 59 -24 -43 0 
-35 1 2 3 4 5 6 7 8 9 10 11 12 31 32 33 46 58 59 -24 -43 0 
-36 21 37 41 57 59 -24 -43 0 
-37 21 36 41 57 59 -24 -43 0 
-38 53 59 -24 -43 0 
-39 55 -26 59 -24 -43 0 
-40 65 0 
-41 21 36 37 57 -42 59 -24 -43 0 
-9 1 2 3 4 5 6 7 8 10 11 12 31 32 33 35 46 58 64 0 
-43 24 -44 18 66 -13 0 
-45 27 61 0 
-28 15 67 0 
-43 24 -44 18 68 -25 0 
-46 1 2 3 4 5 6 7 8 9 10 11 12 31 32 33 35 58 59 -24 -43 0 
-41 21 36 37 57 -18 44 -47 59 -24 -43 0 
-48 -44 18 -49 51 -47 59 -24 -43 0 
-50 -51 49 -34 -52 59 -24 -43 0 
-53 38 59 -24 -43 0 
-54 64 0 
-55 39 -26 59 -24 -43 0 
-16 14 17 20 -44 18 -56 59 -24 -43 0 
-57 21 36 37 41 -44 18 59 -24 -43 0 
-58 1 2 3 4 5 6 7 8 9 10 11 12 31 32 33 35 46 59 -24 -43 0 
